Automatically generated mesh
       0
Gamma
 3 3 3 
